n = 57;
rows = 124;
supports = [|
  {1},2..7,
 |{1},52..57,
 |{2},{1},
 |{2},3..8,
 |{2},53..57,
 |{3},1..2,
 |{3},4..9,
 |{3},54..57,
 |{4},1..3,
 |{4},5..10,
 |{4},55..57,
 |{5},1..4,
 |{5},6..11,
 |{5},56..57,
 |{6},1..5,
 |{6},7..12,
 |{6},{57},
 |{7},1..6,
 |{7},8..13,
 |{8},2..7,
 |{8},9..14,
 |{9},3..8,
 |{9},10..15,
 |{10},4..9,
 |{10},11..16,
 |{11},5..10,
 |{11},12..17,
 |{12},6..11,
 |{12},13..18,
 |{13},7..12,
 |{13},14..19,
 |{14},8..13,
 |{14},15..20,
 |{15},9..14,
 |{15},16..21,
 |{16},10..15,
 |{16},17..22,
 |{17},11..16,
 |{17},18..23,
 |{18},12..17,
 |{18},19..24,
 |{19},13..18,
 |{19},20..25,
 |{20},14..19,
 |{20},21..26,
 |{21},15..20,
 |{21},22..27,
 |{22},16..21,
 |{22},23..28,
 |{23},17..22,
 |{23},24..29,
 |{24},18..23,
 |{24},25..30,
 |{25},19..24,
 |{25},26..31,
 |{26},20..25,
 |{26},27..32,
 |{27},21..26,
 |{27},28..33,
 |{28},22..27,
 |{28},29..34,
 |{29},23..28,
 |{29},30..35,
 |{30},24..29,
 |{30},31..36,
 |{31},25..30,
 |{31},32..37,
 |{32},26..31,
 |{32},33..38,
 |{33},27..32,
 |{33},34..39,
 |{34},28..33,
 |{34},35..40,
 |{35},29..34,
 |{35},36..41,
 |{36},30..35,
 |{36},37..42,
 |{37},31..36,
 |{37},38..43,
 |{38},32..37,
 |{38},39..44,
 |{39},33..38,
 |{39},40..45,
 |{40},34..39,
 |{40},41..46,
 |{41},35..40,
 |{41},42..47,
 |{42},36..41,
 |{42},43..48,
 |{43},37..42,
 |{43},44..49,
 |{44},38..43,
 |{44},45..50,
 |{45},39..44,
 |{45},46..51,
 |{46},40..45,
 |{46},47..52,
 |{47},41..46,
 |{47},48..53,
 |{48},42..47,
 |{48},49..54,
 |{49},43..48,
 |{49},50..55,
 |{50},44..49,
 |{50},51..56,
 |{51},45..50,
 |{51},52..57,
 |{52},46..51,
 |{52},53..57,
 |{52},{1},
 |{53},47..52,
 |{53},54..57,
 |{53},1..2,
 |{54},48..53,
 |{54},55..57,
 |{54},1..3,
 |{55},49..54,
 |{55},56..57,
 |{55},1..4,
 |{56},50..55,
 |{56},{57},
 |{56},1..5,
 |{57},51..56,
 |{57},1..6 |];

t = 127;

indexes = [|
    0,18,
  | 1,43,
  | 1,49,
  | 2,15,
  | 2,23,
  | 2,33,
  | 3,11,
  | 3,18,
  | 3,28,
  | 3,47,
  | 3,50,
  | 3,51,
  | 3,52,
  | 3,56,
  | 4,5,
  | 4,6,
  | 4,7,
  | 4,26,
  | 4,36,
  | 5,6,
  | 5,7,
  | 5,26,
  | 5,30,
  | 5,32,
  | 6,7,
  | 6,26,
  | 6,30,
  | 6,32,
  | 7,9,
  | 7,14,
  | 7,24,
  | 7,26,
  | 7,31,
  | 7,36,
  | 7,37,
  | 8,13,
  | 8,16,
  | 8,19,
  | 8,25,
  | 8,29,
  | 9,36,
  | 9,37,
  | 10,40,
  | 10,44,
  | 11,18,
  | 11,30,
  | 11,56,
  | 12,22,
  | 13,16,
  | 13,17,
  | 13,19,
  | 13,25,
  | 13,40,
  | 14,24,
  | 14,31,
  | 15,23,
  | 15,55,
  | 16,19,
  | 16,25,
  | 16,29,
  | 16,41,
  | 16,42,
  | 16,48,
  | 16,53,
  | 16,54,
  | 17,25,
  | 17,40,
  | 18,30,
  | 18,56,
  | 19,25,
  | 19,29,
  | 20,23,
  | 20,34,
  | 20,35,
  | 20,38,
  | 20,45,
  | 21,28,
  | 21,34,
  | 21,44,
  | 21,45,
  | 21,50,
  | 21,52,
  | 22,27,
  | 22,50,
  | 22,52,
  | 23,33,
  | 23,34,
  | 23,35,
  | 23,38,
  | 23,45,
  | 23,46,
  | 23,55,
  | 25,40,
  | 26,36,
  | 27,50,
  | 27,52,
  | 28,34,
  | 28,44,
  | 28,45,
  | 28,47,
  | 28,50,
  | 28,52,
  | 29,42,
  | 30,32,
  | 30,51,
  | 30,56,
  | 31,37,
  | 32,50,
  | 32,52,
  | 33,46,
  | 34,38,
  | 34,45,
  | 35,38,
  | 35,46,
  | 38,45,
  | 39,40,
  | 41,48,
  | 42,54,
  | 47,56,
  | 48,53,
  | 49,50,
  | 49,52,
  | 50,52,
  | 50,56,
  | 51,56,
  | 52,56,
  | 53,54 |];

